&BANDS
 outdir  = './out/'
 prefix  = 'gr'
 filband = 'gr.bands'
/

