&CONTROL
calculation   = 'bands'
pseudo_dir    = './'
outdir        = './out/'
prefix        = 'gr'
/
&SYSTEM
ibrav         = 4
a             = 2.4639055825
c             = 15.0
nat           = 2
ntyp          = 1
nbnd          = 16
occupations   = 'smearing'
smearing      = 'mv'
degauss       = 0.020
ecutwfc       = 40
/
&ELECTRONS
mixing_beta   = 0.7
conv_thr      = 1.0D-6
/
ATOMIC_SPECIES
C 12.0107 C.pbe-n-rrkjus_psl.0.1.UPF
ATOMIC_POSITIONS (crystal)
C  0.333333333  0.666666666  0.500000000
C  0.666666666  0.333333333  0.500000000
K_POINTS (crystal_b)
4
 0.000000000  0.000000000  0.000000000  40   ! Γ
 0.333333333  0.333333333  0.000000000  20   ! K
 0.500000000  0.000000000  0.000000000  30   ! M
 0.000000000  0.000000000  0.000000000   1   ! Γ

